x =  50;
y =  65;
c = 123;

n =  29;

// Let's index products with letters: A, B, C, ...

//     B   A   C   D   E   F   H   G   J   I   K   L   M   N   O   P   Q   R   T   S   U   V   W   X   Y   Z   [   \   ]
p = [  8   3   8   3   6   5   9   9   6   6   7   6   7   4   9   1   7   9   8   4   4   1   6   3   9   1   4   8   4  ];
w = [  5   5   2   4   9   6   8   3   5   9   1   4   3   3   5   7   2   6   9   8   5   1   7   4   2   1   9   9   8  ];
s = [  31   31   19   19   31   19   8   8   8   8   3   3   3   3   3   3   3   3   3   3   3   3   3   1   1   2   1   1   1  ];